55
1 16 
1 30 
1 51 
1 8 
1 39 
3 48 60 17 
1 2 
1 19 
1 47 
1 50 
1 29 
1 23 
1 55 
1 43 
1 11 
1 15 
1 40 
1 20 
1 25 
1 58 
1 14 
1 36 
1 4 
1 41 
1 13 
3 9 59 5 
1 3 
1 57 
1 36 
1 34 
1 32 
1 53 
1 56 
1 1 
1 38 
1 22 
2 40 21 
1 59 
1 39 
1 42 
1 31 
1 12 
1 24 
1 35 
1 28 
1 7 
1 26 
1 37 
1 44 
1 10 
1 52 
1 54 
1 45 
1 33 
1 18 
